lkh/tours/ii_region_antofa.tour
ii_region_antofa, Cost: 173_333
The tours traveled by the 2 salesmen are:
1 2 3 4 5 6 1 (#5)  Cost: 173
1 11 7 8 9 10 1 (#5)  Cost: 160
